TIME 50
1657
6222
2190
6222
6222
6178
2603
6222
2330
6222
1589
6222
1779
6222
1547
6222
2397
6222
1931
6222
TIME 100
1854
6222
1555
6222
1502
6222
1562
6222
1678
6222
2169
6222
2299
6222
2753
6222
1701
6222
1791
6222
TIME 150
2004
6222
1756
6222
1871
6222
1600
6222
1747
6222
1558
6222
1922
6222
1805
6222
1786
6222
1926
6222
TIME 200
1751
6222
1731
6222
1467
6222
1628
6222
1628
6222
1937
6222
1409
6222
1611
6222
1939
6222
1855
6222
TIME 250
2068
6222
2065
6222
2941
6222
2903
6222
2996
6222
3037
6222
2266
6222
2080
6222
1942
6222
2006
6222
TIME 300
2189
6222
1939
6222
1814
6222
2055
6222
